NAME 
ROWS
 N  OBJ
 L  R0      
 L  R1      
 E  R2      
 E  R3      
 E  R4      
 E  R5      
 E  R6      
 E  R7      
 E  R8      
 E  R9      
 E  R10     
 E  R11     
 E  R12     
 E  R13     
 E  R14     
 E  R15     
 E  R16     
COLUMNS
    MARKER    'MARKER'                 'INTORG'
    I0(7)     OBJ       -65
    I0(7)     R0        -9
    I0(7)     R1        44
    I0(7)     R3        3
    I0(7)     R4        3
    I0(7)     R5        9
    I0(7)     R6        3
    I0(7)     R16       1
    I1(5)     OBJ       -73
    I1(5)     R0        122
    I1(5)     R1        198
    I1(5)     R2        14
    I1(5)     R7        10
    I1(5)     R16       1
    I2(7)     OBJ       171
    I2(7)     R0        33
    I2(7)     R1        -70
    I2(7)     R4        18
    I2(7)     R5        2
    I2(7)     R6        15
    I2(7)     R7        18
    I2(7)     R16       1
    I3(8)     OBJ       -44
    I3(8)     R0        -190
    I3(8)     R1        30
    I3(8)     R3        3
    I3(8)     R4        18
    I3(8)     R5        17
    I3(8)     R6        15
    I3(8)     R7        10
    I3(8)     R16       1
    I4(7)     OBJ       -153
    I4(7)     R0        91
    I4(7)     R1        155
    I4(7)     R2        13
    I4(7)     R3        9
    I4(7)     R5        2
    I4(7)     R6        8
    I4(7)     R16       1
    I5(8)     OBJ       69
    I5(8)     R0        93
    I5(8)     R1        110
    I5(8)     R2        -1
    I5(8)     R3        7
    I5(8)     R5        4
    I5(8)     R6        -1
    I5(8)     R7        14
    I5(8)     R16       1
    MARKER    'MARKER'                 'INTEND'
    C6(7)     OBJ       -9
    C6(7)     R0        6
    C6(7)     R1        1
    C6(7)     R4        6
    C6(7)     R7        4
    C6(7)     R9        3
    C6(7)     R10       11
    C6(7)     R12       10
    C7(10)    OBJ       4
    C7(10)    R0        -9
    C7(10)    R1        -8
    C7(10)    R2        14
    C7(10)    R6        3
    C7(10)    R7        2
    C7(10)    R9        4
    C7(10)    R10       9
    C7(10)    R12       10
    C7(10)    R13       14
    C7(10)    R14       8
    C8(10)    OBJ       -7
    C8(10)    R0        5
    C8(10)    R1        -9
    C8(10)    R2        7
    C8(10)    R3        1
    C8(10)    R5        8
    C8(10)    R6        8
    C8(10)    R8        16
    C8(10)    R9        12
    C8(10)    R10       9
    C8(10)    R14       1
    C9(12)    OBJ       -10
    C9(12)    R0        4
    C9(12)    R1        3
    C9(12)    R2        12
    C9(12)    R3        15
    C9(12)    R4        7
    C9(12)    R5        9
    C9(12)    R7        19
    C9(12)    R9        15
    C9(12)    R10       2
    C9(12)    R11       -1
    C9(12)    R14       9
    C9(12)    R15       7
    C10(10)   OBJ       -2
    C10(10)   R0        -8
    C10(10)   R1        -6
    C10(10)   R2        8
    C10(10)   R5        6
    C10(10)   R6        16
    C10(10)   R9        14
    C10(10)   R12       -1
    C10(10)   R13       13
    C10(10)   R14       1
    C10(10)   R15       5
    C11(7)    OBJ       -6
    C11(7)    R0        5
    C11(7)    R1        -6
    C11(7)    R6        9
    C11(7)    R7        16
    C11(7)    R13       13
    C11(7)    R14       16
    C11(7)    R15       12
    C12(5)    OBJ       -7
    C12(5)    R0        -8
    C12(5)    R1        8
    C12(5)    R5        3
    C12(5)    R13       5
    C12(5)    R14       10
    C13(9)    OBJ       -5
    C13(9)    R0        -10
    C13(9)    R1        -6
    C13(9)    R2        19
    C13(9)    R3        19
    C13(9)    R4        11
    C13(9)    R7        2
    C13(9)    R8        4
    C13(9)    R10       4
    C13(9)    R14       6
    C14(8)    OBJ       3
    C14(8)    R0        7
    C14(8)    R1        -6
    C14(8)    R2        5
    C14(8)    R6        4
    C14(8)    R8        9
    C14(8)    R11       10
    C14(8)    R12       11
    C14(8)    R15       13
    C15(1)    R2        1
    C16(1)    R3        1
    C17(1)    R4        1
    C18(1)    R5        1
    C19(1)    R6        1
    C20(1)    R7        1
    C21(1)    R8        1
    C22(1)    R9        1
    C23(1)    R10       1
    C24(1)    R11       1
    C25(1)    R12       1
    C26(1)    R13       1
    C27(1)    R14       1
    C28(1)    R15       1
    C29(1)    R16       1
RHS
    RHS1      R0        2.0305495558345950e+02
    RHS1      R1        3.3156962001767329e+02
    RHS1      R2        87
    RHS1      R3        96
    RHS1      R4        59
    RHS1      R5        71
    RHS1      R6        95
    RHS1      R7        86
    RHS1      R8        59
    RHS1      R9        87
    RHS1      R10       68
    RHS1      R11       99
    RHS1      R12       54
    RHS1      R13       89
    RHS1      R14       50
    RHS1      R15       56
    RHS1      R16       2
BOUNDS
 UP BND1      I0(7)     2
 UP BND1      I1(5)     2
 UP BND1      I2(7)     2
 UP BND1      I3(8)     2
 UP BND1      I4(7)     2
 UP BND1      I5(8)     2
ENDATA
